p tw 225 47251 2 
1 3 
1 4 
1 5 
1 6 
1 7 
1 8 
1 9 
1 10 
1 11 
1 12 
1 13 
1 14 
1 15 
1 16 
1 17 
1 31 
1 37 
1 46 
1 56 
1 61 
1 64 
1 76 
1 78 
1 91 
1 96 
1 106 
1 119 
1 121 
1 135 
1 136 
1 143 
1 151 
1 163 
1 166 
1 177 
1 181 
1 185 
1 196 
1 205 
1 211 
1 219 
2 3 
2 4 
2 5 
2 6 
2 7 
2 8 
2 9 
2 10 
2 11 
2 12 
2 13 
2 14 
2 15 
2 17 
2 19 
2 31 
2 32 
2 47 
2 60 
2 62 
2 66 
2 77 
2 88 
2 92 
2 93 
2 107 
2 117 
2 122 
2 130 
2 137 
2 144 
2 152 
2 158 
2 167 
2 172 
2 182 
2 194 
2 197 
2 200 
2 212 
2 221 
3 4 
3 5 
3 6 
3 7 
3 8 
3 9 
3 10 
3 11 
3 12 
3 13 
3 14 
3 15 
3 18 
3 24 
3 33 
3 36 
3 48 
3 52 
3 63 
3 68 
3 78 
3 80 
3 93 
3 101 
3 108 
3 115 
3 122 
3 123 
3 138 
3 148 
3 153 
3 154 
3 168 
3 179 
3 181 
3 183 
3 198 
3 207 
3 213 
3 225 
4 5 
4 6 
4 7 
4 8 
4 9 
4 10 
4 11 
4 12 
4 13 
4 14 
4 15 
4 19 
4 22 
4 33 
4 34 
4 49 
4 55 
4 64 
4 69 
4 79 
4 87 
4 94 
4 95 
4 109 
4 118 
4 124 
4 134 
4 139 
4 146 
4 151 
4 154 
4 167 
4 169 
4 184 
4 188 
4 199 
4 210 
4 214 
4 216 
5 6 
5 7 
5 8 
5 9 
5 10 
5 11 
5 12 
5 13 
5 14 
5 15 
5 16 
5 20 
5 35 
5 45 
5 50 
5 57 
5 65 
5 73 
5 80 
5 89 
5 95 
5 100 
5 110 
5 113 
5 125 
5 129 
5 138 
5 140 
5 152 
5 155 
5 170 
5 171 
5 185 
5 191 
5 199 
5 200 
5 215 
5 217 
6 7 
6 8 
6 9 
6 10 
6 11 
6 12 
6 13 
6 14 
6 15 
6 21 
6 29 
6 34 
6 36 
6 51 
6 54 
6 62 
6 66 
6 81 
6 90 
6 96 
6 103 
6 110 
6 111 
6 126 
6 132 
6 136 
6 141 
6 156 
6 161 
6 171 
6 175 
6 186 
6 187 
6 201 
6 203 
6 213 
6 216 
7 8 
7 9 
7 10 
7 11 
7 12 
7 13 
7 14 
7 15 
7 22 
7 27 
7 32 
7 37 
7 52 
7 58 
7 67 
7 75 
7 82 
7 83 
7 97 
7 104 
7 106 
7 112 
7 127 
7 131 
7 142 
7 145 
7 157 
7 159 
7 169 
7 172 
7 183 
7 187 
7 201 
7 202 
7 215 
7 217 
8 9 
8 10 
8 11 
8 12 
8 13 
8 14 
8 15 
8 23 
8 30 
8 38 
8 39 
8 47 
8 53 
8 68 
8 74 
8 82 
8 83 
8 94 
8 98 
8 113 
8 116 
8 123 
8 128 
8 140 
8 143 
8 158 
8 160 
8 166 
8 173 
8 186 
8 188 
8 203 
8 208 
8 218 
8 222 
9 10 
9 11 
9 12 
9 13 
9 14 
9 15 
9 24 
9 25 
9 39 
9 44 
9 46 
9 54 
9 69 
9 72 
9 84 
9 86 
9 99 
9 105 
9 109 
9 114 
9 128 
9 129 
9 142 
9 144 
9 156 
9 159 
9 170 
9 174 
9 189 
9 193 
9 198 
9 204 
9 212 
9 219 
10 11 
10 12 
10 13 
10 14 
10 15 
10 21 
10 25 
10 35 
10 40 
10 55 
10 59 
10 63 
10 70 
10 76 
10 85 
10 97 
10 100 
10 107 
10 115 
10 130 
10 133 
10 139 
10 145 
10 160 
10 162 
10 175 
10 176 
10 190 
10 195 
10 204 
10 205 
10 218 
10 220 
11 12 
11 13 
11 14 
11 15 
11 26 
11 28 
11 41 
11 42 
11 50 
11 56 
11 70 
11 71 
11 84 
11 86 
11 98 
11 101 
11 116 
11 120 
11 126 
11 131 
11 146 
11 149 
11 157 
11 161 
11 168 
11 176 
11 182 
11 191 
11 196 
11 206 
11 214 
11 221 
12 13 
12 14 
12 15 
12 26 
12 27 
12 40 
12 42 
12 53 
12 57 
12 67 
12 72 
12 81 
12 87 
12 91 
12 102 
12 108 
12 117 
12 124 
12 132 
12 137 
12 147 
12 155 
12 162 
12 177 
12 180 
12 189 
12 192 
12 207 
12 209 
12 222 
12 223 
13 14 
13 15 
13 18 
13 28 
13 38 
13 43 
13 49 
13 58 
13 61 
13 73 
13 77 
13 88 
13 102 
13 103 
13 112 
13 118 
13 125 
13 133 
13 141 
13 148 
13 163 
13 165 
13 174 
13 178 
13 190 
13 193 
13 206 
13 208 
13 223 
13 224 
14 15 
14 23 
14 29 
14 41 
14 44 
14 51 
14 59 
14 65 
14 74 
14 79 
14 89 
14 92 
14 104 
14 114 
14 119 
14 121 
14 134 
14 149 
14 150 
14 153 
14 164 
14 178 
14 179 
14 192 
14 194 
14 202 
14 209 
14 220 
14 224 
15 20 
15 30 
15 43 
15 45 
15 48 
15 60 
15 71 
15 75 
15 85 
15 90 
15 99 
15 105 
15 111 
15 120 
15 127 
15 135 
15 147 
15 150 
15 164 
15 165 
15 173 
15 180 
15 184 
15 195 
15 197 
15 210 
15 211 
15 225 
16 17 
16 18 
16 19 
16 20 
16 21 
16 22 
16 23 
16 24 
16 25 
16 26 
16 27 
16 28 
16 29 
16 30 
16 31 
16 45 
16 46 
16 57 
16 61 
16 73 
16 76 
16 89 
16 91 
16 100 
16 106 
16 113 
16 121 
16 129 
16 136 
16 138 
16 151 
16 152 
16 166 
16 171 
16 181 
16 191 
16 196 
16 199 
16 211 
16 217 
17 18 
17 19 
17 20 
17 21 
17 22 
17 23 
17 24 
17 25 
17 26 
17 27 
17 28 
17 29 
17 30 
17 32 
17 37 
17 47 
17 56 
17 62 
17 64 
17 77 
17 78 
17 92 
17 96 
17 107 
17 119 
17 122 
17 135 
17 137 
17 143 
17 152 
17 163 
17 167 
17 177 
17 182 
17 185 
17 197 
17 205 
17 212 
17 219 
18 19 
18 20 
18 21 
18 22 
18 23 
18 24 
18 25 
18 26 
18 27 
18 28 
18 29 
18 30 
18 33 
18 38 
18 48 
18 49 
18 61 
18 63 
18 77 
18 78 
18 93 
18 102 
18 108 
18 112 
18 123 
18 125 
18 138 
18 141 
18 153 
18 165 
18 168 
18 174 
18 183 
18 190 
18 198 
18 206 
18 213 
18 224 
19 20 
19 21 
19 22 
19 23 
19 24 
19 25 
19 26 
19 27 
19 28 
19 29 
19 30 
19 31 
19 34 
19 49 
19 60 
19 64 
19 66 
19 79 
19 88 
19 93 
19 94 
19 109 
19 117 
19 124 
19 130 
19 139 
19 144 
19 154 
19 158 
19 169 
19 172 
19 184 
19 194 
19 199 
19 200 
19 214 
19 221 
20 21 
20 22 
20 23 
20 24 
20 25 
20 26 
20 27 
20 28 
20 29 
20 30 
20 35 
20 43 
20 48 
20 50 
20 65 
20 71 
20 80 
20 85 
20 95 
20 99 
20 110 
20 111 
20 125 
20 127 
20 140 
20 147 
20 155 
20 164 
20 170 
20 173 
20 184 
20 185 
20 197 
20 200 
20 211 
20 215 
21 22 
21 23 
21 24 
21 25 
21 26 
21 27 
21 28 
21 29 
21 30 
21 35 
21 36 
21 51 
21 59 
21 63 
21 66 
21 76 
21 81 
21 96 
21 97 
21 107 
21 111 
21 126 
21 133 
21 139 
21 141 
21 156 
21 162 
21 171 
21 176 
21 186 
21 195 
21 201 
21 204 
21 216 
21 218 
22 23 
22 24 
22 25 
22 26 
22 27 
22 28 
22 29 
22 30 
22 33 
22 37 
22 52 
22 55 
22 67 
22 69 
22 82 
22 87 
22 95 
22 97 
22 112 
22 118 
22 127 
22 134 
22 142 
22 146 
22 151 
22 157 
22 167 
22 172 
22 187 
22 188 
22 202 
22 210 
22 216 
22 217 
23 24 
23 25 
23 26 
23 27 
23 28 
23 29 
23 30 
23 38 
23 41 
23 51 
23 53 
23 65 
23 68 
23 79 
23 83 
23 92 
23 98 
23 113 
23 114 
23 121 
23 128 
23 143 
23 150 
23 153 
23 158 
23 173 
23 178 
23 188 
23 192 
23 202 
23 203 
23 218 
23 220 
24 25 
24 26 
24 27 
24 28 
24 29 
24 30 
24 36 
24 39 
24 52 
24 54 
24 68 
24 69 
24 80 
24 84 
24 99 
24 101 
24 114 
24 115 
24 122 
24 129 
24 144 
24 148 
24 154 
24 159 
24 174 
24 179 
24 181 
24 189 
24 204 
24 207 
24 219 
24 225 
25 26 
25 27 
25 28 
25 29 
25 30 
25 40 
25 44 
25 46 
25 55 
25 70 
25 72 
25 85 
25 86 
25 100 
25 105 
25 109 
25 115 
25 128 
25 130 
25 142 
25 145 
25 156 
25 160 
25 170 
25 175 
25 190 
25 193 
25 198 
25 205 
25 212 
25 220 
26 27 
26 28 
26 29 
26 30 
26 40 
26 41 
26 53 
26 56 
26 67 
26 71 
26 81 
26 86 
26 91 
26 101 
26 108 
26 116 
26 124 
26 131 
26 137 
26 146 
26 155 
26 161 
26 176 
26 180 
26 189 
26 191 
26 206 
26 209 
26 221 
26 223 
27 28 
27 29 
27 30 
27 32 
27 42 
27 57 
27 58 
27 72 
27 75 
27 83 
27 87 
27 102 
27 104 
27 106 
27 117 
27 131 
27 132 
27 145 
27 147 
27 159 
27 162 
27 169 
27 177 
27 183 
27 192 
27 201 
27 207 
27 215 
27 222 
28 29 
28 30 
28 42 
28 43 
28 50 
28 58 
28 70 
28 73 
28 84 
28 88 
28 98 
28 103 
28 118 
28 120 
28 126 
28 133 
28 148 
28 149 
28 157 
28 163 
28 168 
28 178 
28 182 
28 193 
28 196 
28 208 
28 214 
28 223 
29 30 
29 34 
29 44 
29 54 
29 59 
29 62 
29 74 
29 89 
29 90 
29 103 
29 104 
29 110 
29 119 
29 132 
29 134 
29 136 
29 149 
29 161 
29 164 
29 175 
29 179 
29 187 
29 194 
29 203 
29 209 
29 213 
29 224 
30 39 
30 45 
30 47 
30 60 
30 74 
30 75 
30 82 
30 90 
30 94 
30 105 
30 116 
30 120 
30 123 
30 135 
30 140 
30 150 
30 160 
30 165 
30 166 
30 180 
30 186 
30 195 
30 208 
30 210 
30 222 
30 225 
31 32 
31 33 
31 34 
31 35 
31 36 
31 37 
31 38 
31 39 
31 40 
31 41 
31 42 
31 43 
31 44 
31 45 
31 46 
31 60 
31 61 
31 66 
31 76 
31 88 
31 91 
31 93 
31 106 
31 117 
31 121 
31 130 
31 136 
31 144 
31 151 
31 158 
31 166 
31 172 
31 181 
31 194 
31 196 
31 200 
31 211 
31 221 
32 33 
32 34 
32 35 
32 36 
32 37 
32 38 
32 39 
32 40 
32 41 
32 42 
32 43 
32 44 
32 45 
32 47 
32 58 
32 62 
32 75 
32 77 
32 83 
32 92 
32 104 
32 106 
32 107 
32 122 
32 131 
32 137 
32 145 
32 152 
32 159 
32 167 
32 169 
32 182 
32 183 
32 197 
32 201 
32 212 
32 215 
33 34 
33 35 
33 36 
33 37 
33 38 
33 39 
33 40 
33 41 
33 42 
33 43 
33 44 
33 45 
33 48 
33 55 
33 63 
33 69 
33 78 
33 87 
33 93 
33 95 
33 108 
33 118 
33 123 
33 134 
33 138 
33 146 
33 151 
33 153 
33 167 
33 168 
33 183 
33 188 
33 198 
33 210 
33 213 
33 216 
34 35 
34 36 
34 37 
34 38 
34 39 
34 40 
34 41 
34 42 
34 43 
34 44 
34 45 
34 49 
34 54 
34 62 
34 64 
34 79 
34 90 
34 94 
34 103 
34 109 
34 110 
34 124 
34 132 
34 136 
34 139 
34 154 
34 161 
34 169 
34 175 
34 184 
34 187 
34 199 
34 203 
34 213 
34 214 
35 36 
35 37 
35 38 
35 39 
35 40 
35 41 
35 42 
35 43 
35 44 
35 45 
35 50 
35 59 
35 63 
35 65 
35 76 
35 80 
35 95 
35 97 
35 107 
35 110 
35 125 
35 133 
35 139 
35 140 
35 155 
35 162 
35 170 
35 176 
35 185 
35 195 
35 200 
35 204 
35 215 
35 218 
36 37 
36 38 
36 39 
36 40 
36 41 
36 42 
36 43 
36 44 
36 45 
36 51 
36 52 
36 66 
36 68 
36 80 
36 81 
36 96 
36 101 
36 111 
36 115 
36 122 
36 126 
36 141 
36 148 
36 154 
36 156 
36 171 
36 179 
36 181 
36 186 
36 201 
36 207 
36 216 
36 225 
37 38 
37 39 
37 40 
37 41 
37 42 
37 43 
37 44 
37 45 
37 52 
37 56 
37 64 
37 67 
37 78 
37 82 
37 96 
37 97 
37 112 
37 119 
37 127 
37 135 
37 142 
37 143 
37 157 
37 163 
37 172 
37 177 
37 185 
37 187 
37 202 
37 205 
37 217 
37 219 
38 39 
38 40 
38 41 
38 42 
38 43 
38 44 
38 45 
38 49 
38 53 
38 61 
38 68 
38 77 
38 83 
38 98 
38 102 
38 112 
38 113 
38 125 
38 128 
38 141 
38 143 
38 158 
38 165 
38 173 
38 174 
38 188 
38 190 
38 203 
38 206 
38 218 
38 224 
39 40 
39 41 
39 42 
39 43 
39 44 
39 45 
39 47 
39 54 
39 69 
39 74 
39 82 
39 84 
39 94 
39 99 
39 114 
39 116 
39 123 
39 129 
39 140 
39 144 
39 159 
39 160 
39 166 
39 174 
39 186 
39 189 
39 204 
39 208 
39 219 
39 222 
40 41 
40 42 
40 43 
40 44 
40 45 
40 53 
40 55 
40 67 
40 70 
40 81 
40 85 
40 91 
40 100 
40 108 
40 115 
40 124 
40 130 
40 137 
40 145 
40 155 
40 160 
40 175 
40 180 
40 189 
40 190 
40 205 
40 209 
40 220 
40 223 
41 42 
41 43 
41 44 
41 45 
41 51 
41 56 
41 65 
41 71 
41 79 
41 86 
41 92 
41 101 
41 114 
41 116 
41 121 
41 131 
41 146 
41 150 
41 153 
41 161 
41 176 
41 178 
41 191 
41 192 
41 202 
41 206 
41 220 
41 221 
42 43 
42 44 
42 45 
42 50 
42 57 
42 70 
42 72 
42 84 
42 87 
42 98 
42 102 
42 117 
42 120 
42 126 
42 132 
42 147 
42 149 
42 157 
42 162 
42 168 
42 177 
42 182 
42 192 
42 196 
42 207 
42 214 
42 222 
43 44 
43 45 
43 48 
43 58 
43 71 
43 73 
43 85 
43 88 
43 99 
43 103 
43 111 
43 118 
43 127 
43 133 
43 147 
43 148 
43 163 
43 164 
43 173 
43 178 
43 184 
43 193 
43 197 
43 208 
43 211 
43 223 
44 45 
44 46 
44 59 
44 72 
44 74 
44 86 
44 89 
44 104 
44 105 
44 109 
44 119 
44 128 
44 134 
44 142 
44 149 
44 156 
44 164 
44 170 
44 179 
44 193 
44 194 
44 198 
44 209 
44 212 
44 224 
45 57 
45 60 
45 73 
45 75 
45 89 
45 90 
45 100 
45 105 
45 113 
45 120 
45 129 
45 135 
45 138 
45 150 
45 152 
45 165 
45 171 
45 180 
45 191 
45 195 
45 199 
45 210 
45 217 
45 225 
46 47 
46 48 
46 49 
46 50 
46 51 
46 52 
46 53 
46 54 
46 55 
46 56 
46 57 
46 58 
46 59 
46 60 
46 61 
46 72 
46 76 
46 86 
46 91 
46 105 
46 106 
46 109 
46 121 
46 128 
46 136 
46 142 
46 151 
46 156 
46 166 
46 170 
46 181 
46 193 
46 196 
46 198 
46 211 
46 212 
47 48 
47 49 
47 50 
47 51 
47 52 
47 53 
47 54 
47 55 
47 56 
47 57 
47 58 
47 59 
47 60 
47 62 
47 74 
47 77 
47 82 
47 92 
47 94 
47 107 
47 116 
47 122 
47 123 
47 137 
47 140 
47 152 
47 160 
47 166 
47 167 
47 182 
47 186 
47 197 
47 208 
47 212 
47 222 
48 49 
48 50 
48 51 
48 52 
48 53 
48 54 
48 55 
48 56 
48 57 
48 58 
48 59 
48 60 
48 63 
48 71 
48 78 
48 85 
48 93 
48 99 
48 108 
48 111 
48 123 
48 127 
48 138 
48 147 
48 153 
48 164 
48 168 
48 173 
48 183 
48 184 
48 197 
48 198 
48 211 
48 213 
49 50 
49 51 
49 52 
49 53 
49 54 
49 55 
49 56 
49 57 
49 58 
49 59 
49 60 
49 61 
49 64 
49 77 
49 79 
49 94 
49 102 
49 109 
49 112 
49 124 
49 125 
49 139 
49 141 
49 154 
49 165 
49 169 
49 174 
49 184 
49 190 
49 199 
49 206 
49 214 
49 224 
50 51 
50 52 
50 53 
50 54 
50 55 
50 56 
50 57 
50 58 
50 59 
50 60 
50 65 
50 70 
50 80 
50 84 
50 95 
50 98 
50 110 
50 120 
50 125 
50 126 
50 140 
50 149 
50 155 
50 157 
50 168 
50 170 
50 182 
50 185 
50 196 
50 200 
50 214 
50 215 
51 52 
51 53 
51 54 
51 55 
51 56 
51 57 
51 58 
51 59 
51 60 
51 65 
51 66 
51 79 
51 81 
51 92 
51 96 
51 111 
51 114 
51 121 
51 126 
51 141 
51 150 
51 153 
51 156 
51 171 
51 178 
51 186 
51 192 
51 201 
51 202 
51 216 
51 220 
52 53 
52 54 
52 55 
52 56 
52 57 
52 58 
52 59 
52 60 
52 67 
52 68 
52 80 
52 82 
52 97 
52 101 
52 112 
52 115 
52 122 
52 127 
52 142 
52 148 
52 154 
52 157 
52 172 
52 179 
52 181 
52 187 
52 202 
52 207 
52 217 
52 225 
53 54 
53 55 
53 56 
53 57 
53 58 
53 59 
53 60 
53 67 
53 68 
53 81 
53 83 
53 91 
53 98 
53 108 
53 113 
53 124 
53 128 
53 137 
53 143 
53 155 
53 158 
53 173 
53 180 
53 188 
53 189 
53 203 
53 209 
53 218 
53 223 
54 55 
54 56 
54 57 
54 58 
54 59 
54 60 
54 62 
54 69 
54 84 
54 90 
54 99 
54 103 
54 110 
54 114 
54 129 
54 132 
54 136 
54 144 
54 159 
54 161 
54 174 
54 175 
54 187 
54 189 
54 203 
54 204 
54 213 
54 219 
55 56 
55 57 
55 58 
55 59 
55 60 
55 69 
55 70 
55 85 
55 87 
55 95 
55 100 
55 115 
55 118 
55 130 
55 134 
55 145 
55 146 
55 151 
55 160 
55 167 
55 175 
55 188 
55 190 
55 205 
55 210 
55 216 
55 220 
56 57 
56 58 
56 59 
56 60 
56 64 
56 71 
56 78 
56 86 
56 96 
56 101 
56 116 
56 119 
56 131 
56 135 
56 143 
56 146 
56 161 
56 163 
56 176 
56 177 
56 185 
56 191 
56 205 
56 206 
56 219 
56 221 
57 58 
57 59 
57 60 
57 72 
57 73 
57 87 
57 89 
57 100 
57 102 
57 113 
57 117 
57 129 
57 132 
57 138 
57 147 
57 152 
57 162 
57 171 
57 177 
57 191 
57 192 
57 199 
57 207 
57 217 
57 222 
58 59 
58 60 
58 73 
58 75 
58 83 
58 88 
58 103 
58 104 
58 106 
58 118 
58 131 
58 133 
58 145 
58 148 
58 159 
58 163 
58 169 
58 178 
58 183 
58 193 
58 201 
58 208 
58 215 
58 223 
59 60 
59 63 
59 74 
59 76 
59 89 
59 97 
59 104 
59 107 
59 119 
59 133 
59 134 
59 139 
59 149 
59 162 
59 164 
59 176 
59 179 
59 194 
59 195 
59 204 
59 209 
59 218 
59 224 
60 66 
60 75 
60 88 
60 90 
60 93 
60 105 
60 117 
60 120 
60 130 
60 135 
60 144 
60 150 
60 158 
60 165 
60 172 
60 180 
60 194 
60 195 
60 200 
60 210 
60 221 
60 225 
61 62 
61 63 
61 64 
61 65 
61 66 
61 67 
61 68 
61 69 
61 70 
61 71 
61 72 
61 73 
61 74 
61 75 
61 76 
61 77 
61 91 
61 102 
61 106 
61 112 
61 121 
61 125 
61 136 
61 141 
61 151 
61 165 
61 166 
61 174 
61 181 
61 190 
61 196 
61 206 
61 211 
61 224 
62 63 
62 64 
62 65 
62 66 
62 67 
62 68 
62 69 
62 70 
62 71 
62 72 
62 73 
62 74 
62 75 
62 77 
62 90 
62 92 
62 103 
62 107 
62 110 
62 122 
62 132 
62 136 
62 137 
62 152 
62 161 
62 167 
62 175 
62 182 
62 187 
62 197 
62 203 
62 212 
62 213 
63 64 
63 65 
63 66 
63 67 
63 68 
63 69 
63 70 
63 71 
63 72 
63 73 
63 74 
63 75 
63 76 
63 78 
63 93 
63 97 
63 107 
63 108 
63 123 
63 133 
63 138 
63 139 
63 153 
63 162 
63 168 
63 176 
63 183 
63 195 
63 198 
63 204 
63 213 
63 218 
64 65 
64 66 
64 67 
64 68 
64 69 
64 70 
64 71 
64 72 
64 73 
64 74 
64 75 
64 78 
64 79 
64 94 
64 96 
64 109 
64 119 
64 124 
64 135 
64 139 
64 143 
64 154 
64 163 
64 169 
64 177 
64 184 
64 185 
64 199 
64 205 
64 214 
64 219 
65 66 
65 67 
65 68 
65 69 
65 70 
65 71 
65 72 
65 73 
65 74 
65 75 
65 79 
65 80 
65 92 
65 95 
65 110 
65 114 
65 121 
65 125 
65 140 
65 150 
65 153 
65 155 
65 170 
65 178 
65 185 
65 192 
65 200 
65 202 
65 215 
65 220 
66 67 
66 68 
66 69 
66 70 
66 71 
66 72 
66 73 
66 74 
66 75 
66 81 
66 88 
66 93 
66 96 
66 111 
66 117 
66 126 
66 130 
66 141 
66 144 
66 156 
66 158 
66 171 
66 172 
66 186 
66 194 
66 200 
66 201 
66 216 
66 221 
67 68 
67 69 
67 70 
67 71 
67 72 
67 73 
67 74 
67 75 
67 81 
67 82 
67 91 
67 97 
67 108 
67 112 
67 124 
67 127 
67 137 
67 142 
67 155 
67 157 
67 172 
67 180 
67 187 
67 189 
67 202 
67 209 
67 217 
67 223 
68 69 
68 70 
68 71 
68 72 
68 73 
68 74 
68 75 
68 80 
68 83 
68 98 
68 101 
68 113 
68 115 
68 122 
68 128 
68 143 
68 148 
68 154 
68 158 
68 173 
68 179 
68 181 
68 188 
68 203 
68 207 
68 218 
68 225 
69 70 
69 71 
69 72 
69 73 
69 74 
69 75 
69 84 
69 87 
69 95 
69 99 
69 114 
69 118 
69 129 
69 134 
69 144 
69 146 
69 151 
69 159 
69 167 
69 174 
69 188 
69 189 
69 204 
69 210 
69 216 
69 219 
70 71 
70 72 
70 73 
70 74 
70 75 
70 84 
70 85 
70 98 
70 100 
70 115 
70 120 
70 126 
70 130 
70 145 
70 149 
70 157 
70 160 
70 168 
70 175 
70 182 
70 190 
70 196 
70 205 
70 214 
70 220 
71 72 
71 73 
71 74 
71 75 
71 85 
71 86 
71 99 
71 101 
71 111 
71 116 
71 127 
71 131 
71 146 
71 147 
71 161 
71 164 
71 173 
71 176 
71 184 
71 191 
71 197 
71 206 
71 211 
71 221 
72 73 
72 74 
72 75 
72 86 
72 87 
72 102 
72 105 
72 109 
72 117 
72 128 
72 132 
72 142 
72 147 
72 156 
72 162 
72 170 
72 177 
72 192 
72 193 
72 198 
72 207 
72 212 
72 222 
73 74 
73 75 
73 88 
73 89 
73 100 
73 103 
73 113 
73 118 
73 129 
73 133 
73 138 
73 148 
73 152 
73 163 
73 171 
73 178 
73 191 
73 193 
73 199 
73 208 
73 217 
73 223 
74 75 
74 82 
74 89 
74 94 
74 104 
74 116 
74 119 
74 123 
74 134 
74 140 
74 149 
74 160 
74 164 
74 166 
74 179 
74 186 
74 194 
74 208 
74 209 
74 222 
74 224 
75 83 
75 90 
75 104 
75 105 
75 106 
75 120 
75 131 
75 135 
75 145 
75 150 
75 159 
75 165 
75 169 
75 180 
75 183 
75 195 
75 201 
75 210 
75 215 
75 225 
76 77 
76 78 
76 79 
76 80 
76 81 
76 82 
76 83 
76 84 
76 85 
76 86 
76 87 
76 88 
76 89 
76 90 
76 91 
76 97 
76 106 
76 107 
76 121 
76 133 
76 136 
76 139 
76 151 
76 162 
76 166 
76 176 
76 181 
76 195 
76 196 
76 204 
76 211 
76 218 
77 78 
77 79 
77 80 
77 81 
77 82 
77 83 
77 84 
77 85 
77 86 
77 87 
77 88 
77 89 
77 90 
77 92 
77 102 
77 107 
77 112 
77 122 
77 125 
77 137 
77 141 
77 152 
77 165 
77 167 
77 174 
77 182 
77 190 
77 197 
77 206 
77 212 
77 224 
78 79 
78 80 
78 81 
78 82 
78 83 
78 84 
78 85 
78 86 
78 87 
78 88 
78 89 
78 90 
78 93 
78 96 
78 108 
78 119 
78 123 
78 135 
78 138 
78 143 
78 153 
78 163 
78 168 
78 177 
78 183 
78 185 
78 198 
78 205 
78 213 
78 219 
79 80 
79 81 
79 82 
79 83 
79 84 
79 85 
79 86 
79 87 
79 88 
79 89 
79 90 
79 92 
79 94 
79 109 
79 114 
79 121 
79 124 
79 139 
79 150 
79 153 
79 154 
79 169 
79 178 
79 184 
79 192 
79 199 
79 202 
79 214 
79 220 
80 81 
80 82 
80 83 
80 84 
80 85 
80 86 
80 87 
80 88 
80 89 
80 90 
80 95 
80 101 
80 110 
80 115 
80 122 
80 125 
80 140 
80 148 
80 154 
80 155 
80 170 
80 179 
80 181 
80 185 
80 200 
80 207 
80 215 
80 225 
81 82 
81 83 
81 84 
81 85 
81 86 
81 87 
81 88 
81 89 
81 90 
81 91 
81 96 
81 108 
81 111 
81 124 
81 126 
81 137 
81 141 
81 155 
81 156 
81 171 
81 180 
81 186 
81 189 
81 201 
81 209 
81 216 
81 223 
82 83 
82 84 
82 85 
82 86 
82 87 
82 88 
82 89 
82 90 
82 94 
82 97 
82 112 
82 116 
82 123 
82 127 
82 140 
82 142 
82 157 
82 160 
82 166 
82 172 
82 186 
82 187 
82 202 
82 208 
82 217 
82 222 
83 84 
83 85 
83 86 
83 87 
83 88 
83 89 
83 90 
83 98 
83 104 
83 106 
83 113 
83 128 
83 131 
83 143 
83 145 
83 158 
83 159 
83 169 
83 173 
83 183 
83 188 
83 201 
83 203 
83 215 
83 218 
84 85 
84 86 
84 87 
84 88 
84 89 
84 90 
84 98 
84 99 
84 114 
84 120 
84 126 
84 129 
84 144 
84 149 
84 157 
84 159 
84 168 
84 174 
84 182 
84 189 
84 196 
84 204 
84 214 
84 219 
85 86 
85 87 
85 88 
85 89 
85 90 
85 99 
85 100 
85 111 
85 115 
85 127 
85 130 
85 145 
85 147 
85 160 
85 164 
85 173 
85 175 
85 184 
85 190 
85 197 
85 205 
85 211 
85 220 
86 87 
86 88 
86 89 
86 90 
86 101 
86 105 
86 109 
86 116 
86 128 
86 131 
86 142 
86 146 
86 156 
86 161 
86 170 
86 176 
86 191 
86 193 
86 198 
86 206 
86 212 
86 221 
87 88 
87 89 
87 90 
87 95 
87 102 
87 117 
87 118 
87 132 
87 134 
87 146 
87 147 
87 151 
87 162 
87 167 
87 177 
87 188 
87 192 
87 207 
87 210 
87 216 
87 222 
88 89 
88 90 
88 93 
88 103 
88 117 
88 118 
88 130 
88 133 
88 144 
88 148 
88 158 
88 163 
88 172 
88 178 
88 193 
88 194 
88 200 
88 208 
88 221 
88 223 
89 90 
89 100 
89 104 
89 113 
89 119 
89 129 
89 134 
89 138 
89 149 
89 152 
89 164 
89 171 
89 179 
89 191 
89 194 
89 199 
89 209 
89 217 
89 224 
90 103 
90 105 
90 110 
90 120 
90 132 
90 135 
90 136 
90 150 
90 161 
90 165 
90 175 
90 180 
90 187 
90 195 
90 203 
90 210 
90 213 
90 225 
91 92 
91 93 
91 94 
91 95 
91 96 
91 97 
91 98 
91 99 
91 100 
91 101 
91 102 
91 103 
91 104 
91 105 
91 106 
91 108 
91 121 
91 124 
91 136 
91 137 
91 151 
91 155 
91 166 
91 180 
91 181 
91 189 
91 196 
91 209 
91 211 
91 223 
92 93 
92 94 
92 95 
92 96 
92 97 
92 98 
92 99 
92 100 
92 101 
92 102 
92 103 
92 104 
92 105 
92 107 
92 114 
92 121 
92 122 
92 137 
92 150 
92 152 
92 153 
92 167 
92 178 
92 182 
92 192 
92 197 
92 202 
92 212 
92 220 
93 94 
93 95 
93 96 
93 97 
93 98 
93 99 
93 100 
93 101 
93 102 
93 103 
93 104 
93 105 
93 108 
93 117 
93 123 
93 130 
93 138 
93 144 
93 153 
93 158 
93 168 
93 172 
93 183 
93 194 
93 198 
93 200 
93 213 
93 221 
94 95 
94 96 
94 97 
94 98 
94 99 
94 100 
94 101 
94 102 
94 103 
94 104 
94 105 
94 109 
94 116 
94 123 
94 124 
94 139 
94 140 
94 154 
94 160 
94 166 
94 169 
94 184 
94 186 
94 199 
94 208 
94 214 
94 222 
95 96 
95 97 
95 98 
95 99 
95 100 
95 101 
95 102 
95 103 
95 104 
95 105 
95 110 
95 118 
95 125 
95 134 
95 140 
95 146 
95 151 
95 155 
95 167 
95 170 
95 185 
95 188 
95 200 
95 210 
95 215 
95 216 
96 97 
96 98 
96 99 
96 100 
96 101 
96 102 
96 103 
96 104 
96 105 
96 111 
96 119 
96 126 
96 135 
96 141 
96 143 
96 156 
96 163 
96 171 
96 177 
96 185 
96 186 
96 201 
96 205 
96 216 
96 219 
97 98 
97 99 
97 100 
97 101 
97 102 
97 103 
97 104 
97 105 
97 107 
97 112 
97 127 
97 133 
97 139 
97 142 
97 157 
97 162 
97 172 
97 176 
97 187 
97 195 
97 202 
97 204 
97 217 
97 218 
98 99 
98 100 
98 101 
98 102 
98 103 
98 104 
98 105 
98 113 
98 120 
98 126 
98 128 
98 143 
98 149 
98 157 
98 158 
98 168 
98 173 
98 182 
98 188 
98 196 
98 203 
98 214 
98 218 
99 100 
99 101 
99 102 
99 103 
99 104 
99 105 
99 111 
99 114 
99 127 
99 129 
99 144 
99 147 
99 159 
99 164 
99 173 
99 174 
99 184 
99 189 
99 197 
99 204 
99 211 
99 219 
100 101 
100 102 
100 103 
100 104 
100 105 
100 113 
100 115 
100 129 
100 130 
100 138 
100 145 
100 152 
100 160 
100 171 
100 175 
100 190 
100 191 
100 199 
100 205 
100 217 
100 220 
101 102 
101 103 
101 104 
101 105 
101 115 
101 116 
101 122 
101 131 
101 146 
101 148 
101 154 
101 161 
101 176 
101 179 
101 181 
101 191 
101 206 
101 207 
101 221 
101 225 
102 103 
102 104 
102 105 
102 112 
102 117 
102 125 
102 132 
102 141 
102 147 
102 162 
102 165 
102 174 
102 177 
102 190 
102 192 
102 206 
102 207 
102 222 
102 224 
103 104 
103 105 
103 110 
103 118 
103 132 
103 133 
103 136 
103 148 
103 161 
103 163 
103 175 
103 178 
103 187 
103 193 
103 203 
103 208 
103 213 
103 223 
104 105 
104 106 
104 119 
104 131 
104 134 
104 145 
104 149 
104 159 
104 164 
104 169 
104 179 
104 183 
104 194 
104 201 
104 209 
104 215 
104 224 
105 109 
105 120 
105 128 
105 135 
105 142 
105 150 
105 156 
105 165 
105 170 
105 180 
105 193 
105 195 
105 198 
105 210 
105 212 
105 225 
106 107 
106 108 
106 109 
106 110 
106 111 
106 112 
106 113 
106 114 
106 115 
106 116 
106 117 
106 118 
106 119 
106 120 
106 121 
106 131 
106 136 
106 145 
106 151 
106 159 
106 166 
106 169 
106 181 
106 183 
106 196 
106 201 
106 211 
106 215 
107 108 
107 109 
107 110 
107 111 
107 112 
107 113 
107 114 
107 115 
107 116 
107 117 
107 118 
107 119 
107 120 
107 122 
107 133 
107 137 
107 139 
107 152 
107 162 
107 167 
107 176 
107 182 
107 195 
107 197 
107 204 
107 212 
107 218 
108 109 
108 110 
108 111 
108 112 
108 113 
108 114 
108 115 
108 116 
108 117 
108 118 
108 119 
108 120 
108 123 
108 124 
108 137 
108 138 
108 153 
108 155 
108 168 
108 180 
108 183 
108 189 
108 198 
108 209 
108 213 
108 223 
109 110 
109 111 
109 112 
109 113 
109 114 
109 115 
109 116 
109 117 
109 118 
109 119 
109 120 
109 124 
109 128 
109 139 
109 142 
109 154 
109 156 
109 169 
109 170 
109 184 
109 193 
109 198 
109 199 
109 212 
109 214 
110 111 
110 112 
110 113 
110 114 
110 115 
110 116 
110 117 
110 118 
110 119 
110 120 
110 125 
110 132 
110 136 
110 140 
110 155 
110 161 
110 170 
110 175 
110 185 
110 187 
110 200 
110 203 
110 213 
110 215 
111 112 
111 113 
111 114 
111 115 
111 116 
111 117 
111 118 
111 119 
111 120 
111 126 
111 127 
111 141 
111 147 
111 156 
111 164 
111 171 
111 173 
111 184 
111 186 
111 197 
111 201 
111 211 
111 216 
112 113 
112 114 
112 115 
112 116 
112 117 
112 118 
112 119 
112 120 
112 125 
112 127 
112 141 
112 142 
112 157 
112 165 
112 172 
112 174 
112 187 
112 190 
112 202 
112 206 
112 217 
112 224 
113 114 
113 115 
113 116 
113 117 
113 118 
113 119 
113 120 
113 128 
113 129 
113 138 
113 143 
113 152 
113 158 
113 171 
113 173 
113 188 
113 191 
113 199 
113 203 
113 217 
113 218 
114 115 
114 116 
114 117 
114 118 
114 119 
114 120 
114 121 
114 129 
114 144 
114 150 
114 153 
114 159 
114 174 
114 178 
114 189 
114 192 
114 202 
114 204 
114 219 
114 220 
115 116 
115 117 
115 118 
115 119 
115 120 
115 122 
115 130 
115 145 
115 148 
115 154 
115 160 
115 175 
115 179 
115 181 
115 190 
115 205 
115 207 
115 220 
115 225 
116 117 
116 118 
116 119 
116 120 
116 123 
116 131 
116 140 
116 146 
116 160 
116 161 
116 166 
116 176 
116 186 
116 191 
116 206 
116 208 
116 221 
116 222 
117 118 
117 119 
117 120 
117 130 
117 132 
117 144 
117 147 
117 158 
117 162 
117 172 
117 177 
117 192 
117 194 
117 200 
117 207 
117 221 
117 222 
118 119 
118 120 
118 133 
118 134 
118 146 
118 148 
118 151 
118 163 
118 167 
118 178 
118 188 
118 193 
118 208 
118 210 
118 216 
118 223 
119 120 
119 134 
119 135 
119 143 
119 149 
119 163 
119 164 
119 177 
119 179 
119 185 
119 194 
119 205 
119 209 
119 219 
119 224 
120 126 
120 135 
120 149 
120 150 
120 157 
120 165 
120 168 
120 180 
120 182 
120 195 
120 196 
120 210 
120 214 
120 225 
121 122 
121 123 
121 124 
121 125 
121 126 
121 127 
121 128 
121 129 
121 130 
121 131 
121 132 
121 133 
121 134 
121 135 
121 136 
121 150 
121 151 
121 153 
121 166 
121 178 
121 181 
121 192 
121 196 
121 202 
121 211 
121 220 
122 123 
122 124 
122 125 
122 126 
122 127 
122 128 
122 129 
122 130 
122 131 
122 132 
122 133 
122 134 
122 135 
122 137 
122 148 
122 152 
122 154 
122 167 
122 179 
122 181 
122 182 
122 197 
122 207 
122 212 
122 225 
123 124 
123 125 
123 126 
123 127 
123 128 
123 129 
123 130 
123 131 
123 132 
123 133 
123 134 
123 135 
123 138 
123 140 
123 153 
123 160 
123 166 
123 168 
123 183 
123 186 
123 198 
123 208 
123 213 
123 222 
124 125 
124 126 
124 127 
124 128 
124 129 
124 130 
124 131 
124 132 
124 133 
124 134 
124 135 
124 137 
124 139 
124 154 
124 155 
124 169 
124 180 
124 184 
124 189 
124 199 
124 209 
124 214 
124 223 
125 126 
125 127 
125 128 
125 129 
125 130 
125 131 
125 132 
125 133 
125 134 
125 135 
125 140 
125 141 
125 155 
125 165 
125 170 
125 174 
125 185 
125 190 
125 200 
125 206 
125 215 
125 224 
126 127 
126 128 
126 129 
126 130 
126 131 
126 132 
126 133 
126 134 
126 135 
126 141 
126 149 
126 156 
126 157 
126 168 
126 171 
126 182 
126 186 
126 196 
126 201 
126 214 
126 216 
127 128 
127 129 
127 130 
127 131 
127 132 
127 133 
127 134 
127 135 
127 142 
127 147 
127 157 
127 164 
127 172 
127 173 
127 184 
127 187 
127 197 
127 202 
127 211 
127 217 
128 129 
128 130 
128 131 
128 132 
128 133 
128 134 
128 135 
128 142 
128 143 
128 156 
128 158 
128 170 
128 173 
128 188 
128 193 
128 198 
128 203 
128 212 
128 218 
129 130 
129 131 
129 132 
129 133 
129 134 
129 135 
129 138 
129 144 
129 152 
129 159 
129 171 
129 174 
129 189 
129 191 
129 199 
129 204 
129 217 
129 219 
130 131 
130 132 
130 133 
130 134 
130 135 
130 144 
130 145 
130 158 
130 160 
130 172 
130 175 
130 190 
130 194 
130 200 
130 205 
130 220 
130 221 
131 132 
131 133 
131 134 
131 135 
131 145 
131 146 
131 159 
131 161 
131 169 
131 176 
131 183 
131 191 
131 201 
131 206 
131 215 
131 221 
132 133 
132 134 
132 135 
132 136 
132 147 
132 161 
132 162 
132 175 
132 177 
132 187 
132 192 
132 203 
132 207 
132 213 
132 222 
133 134 
133 135 
133 139 
133 148 
133 162 
133 163 
133 176 
133 178 
133 193 
133 195 
133 204 
133 208 
133 218 
133 223 
134 135 
134 146 
134 149 
134 151 
134 164 
134 167 
134 179 
134 188 
134 194 
134 209 
134 210 
134 216 
134 224 
135 143 
135 150 
135 163 
135 165 
135 177 
135 180 
135 185 
135 195 
135 205 
135 210 
135 219 
135 225 
136 137 
136 138 
136 139 
136 140 
136 141 
136 142 
136 143 
136 144 
136 145 
136 146 
136 147 
136 148 
136 149 
136 150 
136 151 
136 161 
136 166 
136 175 
136 181 
136 187 
136 196 
136 203 
136 211 
136 213 
137 138 
137 139 
137 140 
137 141 
137 142 
137 143 
137 144 
137 145 
137 146 
137 147 
137 148 
137 149 
137 150 
137 152 
137 155 
137 167 
137 180 
137 182 
137 189 
137 197 
137 209 
137 212 
137 223 
138 139 
138 140 
138 141 
138 142 
138 143 
138 144 
138 145 
138 146 
138 147 
138 148 
138 149 
138 150 
138 152 
138 153 
138 168 
138 171 
138 183 
138 191 
138 198 
138 199 
138 213 
138 217 
139 140 
139 141 
139 142 
139 143 
139 144 
139 145 
139 146 
139 147 
139 148 
139 149 
139 150 
139 154 
139 162 
139 169 
139 176 
139 184 
139 195 
139 199 
139 204 
139 214 
139 218 
140 141 
140 142 
140 143 
140 144 
140 145 
140 146 
140 147 
140 148 
140 149 
140 150 
140 155 
140 160 
140 166 
140 170 
140 185 
140 186 
140 200 
140 208 
140 215 
140 222 
141 142 
141 143 
141 144 
141 145 
141 146 
141 147 
141 148 
141 149 
141 150 
141 156 
141 165 
141 171 
141 174 
141 186 
141 190 
141 201 
141 206 
141 216 
141 224 
142 143 
142 144 
142 145 
142 146 
142 147 
142 148 
142 149 
142 150 
142 156 
142 157 
142 170 
142 172 
142 187 
142 193 
142 198 
142 202 
142 212 
142 217 
143 144 
143 145 
143 146 
143 147 
143 148 
143 149 
143 150 
143 158 
143 163 
143 173 
143 177 
143 185 
143 188 
143 203 
143 205 
143 218 
143 219 
144 145 
144 146 
144 147 
144 148 
144 149 
144 150 
144 158 
144 159 
144 172 
144 174 
144 189 
144 194 
144 200 
144 204 
144 219 
144 221 
145 146 
145 147 
145 148 
145 149 
145 150 
145 159 
145 160 
145 169 
145 175 
145 183 
145 190 
145 201 
145 205 
145 215 
145 220 
146 147 
146 148 
146 149 
146 150 
146 151 
146 161 
146 167 
146 176 
146 188 
146 191 
146 206 
146 210 
146 216 
146 221 
147 148 
147 149 
147 150 
147 162 
147 164 
147 173 
147 177 
147 184 
147 192 
147 197 
147 207 
147 211 
147 222 
148 149 
148 150 
148 154 
148 163 
148 178 
148 179 
148 181 
148 193 
148 207 
148 208 
148 223 
148 225 
149 150 
149 157 
149 164 
149 168 
149 179 
149 182 
149 194 
149 196 
149 209 
149 214 
149 224 
150 153 
150 165 
150 178 
150 180 
150 192 
150 195 
150 202 
150 210 
150 220 
150 225 
151 152 
151 153 
151 154 
151 155 
151 156 
151 157 
151 158 
151 159 
151 160 
151 161 
151 162 
151 163 
151 164 
151 165 
151 166 
151 167 
151 181 
151 188 
151 196 
151 210 
151 211 
151 216 
152 153 
152 154 
152 155 
152 156 
152 157 
152 158 
152 159 
152 160 
152 161 
152 162 
152 163 
152 164 
152 165 
152 167 
152 171 
152 182 
152 191 
152 197 
152 199 
152 212 
152 217 
153 154 
153 155 
153 156 
153 157 
153 158 
153 159 
153 160 
153 161 
153 162 
153 163 
153 164 
153 165 
153 168 
153 178 
153 183 
153 192 
153 198 
153 202 
153 213 
153 220 
154 155 
154 156 
154 157 
154 158 
154 159 
154 160 
154 161 
154 162 
154 163 
154 164 
154 165 
154 169 
154 179 
154 181 
154 184 
154 199 
154 207 
154 214 
154 225 
155 156 
155 157 
155 158 
155 159 
155 160 
155 161 
155 162 
155 163 
155 164 
155 165 
155 170 
155 180 
155 185 
155 189 
155 200 
155 209 
155 215 
155 223 
156 157 
156 158 
156 159 
156 160 
156 161 
156 162 
156 163 
156 164 
156 165 
156 170 
156 171 
156 186 
156 193 
156 198 
156 201 
156 212 
156 216 
157 158 
157 159 
157 160 
157 161 
157 162 
157 163 
157 164 
157 165 
157 168 
157 172 
157 182 
157 187 
157 196 
157 202 
157 214 
157 217 
158 159 
158 160 
158 161 
158 162 
158 163 
158 164 
158 165 
158 172 
158 173 
158 188 
158 194 
158 200 
158 203 
158 218 
158 221 
159 160 
159 161 
159 162 
159 163 
159 164 
159 165 
159 169 
159 174 
159 183 
159 189 
159 201 
159 204 
159 215 
159 219 
160 161 
160 162 
160 163 
160 164 
160 165 
160 166 
160 175 
160 186 
160 190 
160 205 
160 208 
160 220 
160 222 
161 162 
161 163 
161 164 
161 165 
161 175 
161 176 
161 187 
161 191 
161 203 
161 206 
161 213 
161 221 
162 163 
162 164 
162 165 
162 176 
162 177 
162 192 
162 195 
162 204 
162 207 
162 218 
162 222 
163 164 
163 165 
163 177 
163 178 
163 185 
163 193 
163 205 
163 208 
163 219 
163 223 
164 165 
164 173 
164 179 
164 184 
164 194 
164 197 
164 209 
164 211 
164 224 
165 174 
165 180 
165 190 
165 195 
165 206 
165 210 
165 224 
165 225 
166 167 
166 168 
166 169 
166 170 
166 171 
166 172 
166 173 
166 174 
166 175 
166 176 
166 177 
166 178 
166 179 
166 180 
166 181 
166 186 
166 196 
166 208 
166 211 
166 222 
167 168 
167 169 
167 170 
167 171 
167 172 
167 173 
167 174 
167 175 
167 176 
167 177 
167 178 
167 179 
167 180 
167 182 
167 188 
167 197 
167 210 
167 212 
167 216 
168 169 
168 170 
168 171 
168 172 
168 173 
168 174 
168 175 
168 176 
168 177 
168 178 
168 179 
168 180 
168 182 
168 183 
168 196 
168 198 
168 213 
168 214 
169 170 
169 171 
169 172 
169 173 
169 174 
169 175 
169 176 
169 177 
169 178 
169 179 
169 180 
169 183 
169 184 
169 199 
169 201 
169 214 
169 215 
170 171 
170 172 
170 173 
170 174 
170 175 
170 176 
170 177 
170 178 
170 179 
170 180 
170 185 
170 193 
170 198 
170 200 
170 212 
170 215 
171 172 
171 173 
171 174 
171 175 
171 176 
171 177 
171 178 
171 179 
171 180 
171 186 
171 191 
171 199 
171 201 
171 216 
171 217 
172 173 
172 174 
172 175 
172 176 
172 177 
172 178 
172 179 
172 180 
172 187 
172 194 
172 200 
172 202 
172 217 
172 221 
173 174 
173 175 
173 176 
173 177 
173 178 
173 179 
173 180 
173 184 
173 188 
173 197 
173 203 
173 211 
173 218 
174 175 
174 176 
174 177 
174 178 
174 179 
174 180 
174 189 
174 190 
174 204 
174 206 
174 219 
174 224 
175 176 
175 177 
175 178 
175 179 
175 180 
175 187 
175 190 
175 203 
175 205 
175 213 
175 220 
176 177 
176 178 
176 179 
176 180 
176 191 
176 195 
176 204 
176 206 
176 218 
176 221 
177 178 
177 179 
177 180 
177 185 
177 192 
177 205 
177 207 
177 219 
177 222 
178 179 
178 180 
178 192 
178 193 
178 202 
178 208 
178 220 
178 223 
179 180 
179 181 
179 194 
179 207 
179 209 
179 224 
179 225 
180 189 
180 195 
180 209 
180 210 
180 223 
180 225 
181 182 
181 183 
181 184 
181 185 
181 186 
181 187 
181 188 
181 189 
181 190 
181 191 
181 192 
181 193 
181 194 
181 195 
181 196 
181 207 
181 211 
181 225 
182 183 
182 184 
182 185 
182 186 
182 187 
182 188 
182 189 
182 190 
182 191 
182 192 
182 193 
182 194 
182 195 
182 196 
182 197 
182 212 
182 214 
183 184 
183 185 
183 186 
183 187 
183 188 
183 189 
183 190 
183 191 
183 192 
183 193 
183 194 
183 195 
183 198 
183 201 
183 213 
183 215 
184 185 
184 186 
184 187 
184 188 
184 189 
184 190 
184 191 
184 192 
184 193 
184 194 
184 195 
184 197 
184 199 
184 211 
184 214 
185 186 
185 187 
185 188 
185 189 
185 190 
185 191 
185 192 
185 193 
185 194 
185 195 
185 200 
185 205 
185 215 
185 219 
186 187 
186 188 
186 189 
186 190 
186 191 
186 192 
186 193 
186 194 
186 195 
186 201 
186 208 
186 216 
186 222 
187 188 
187 189 
187 190 
187 191 
187 192 
187 193 
187 194 
187 195 
187 202 
187 203 
187 213 
187 217 
188 189 
188 190 
188 191 
188 192 
188 193 
188 194 
188 195 
188 203 
188 210 
188 216 
188 218 
189 190 
189 191 
189 192 
189 193 
189 194 
189 195 
189 204 
189 209 
189 219 
189 223 
190 191 
190 192 
190 193 
190 194 
190 195 
190 205 
190 206 
190 220 
190 224 
191 192 
191 193 
191 194 
191 195 
191 199 
191 206 
191 217 
191 221 
192 193 
192 194 
192 195 
192 202 
192 207 
192 220 
192 222 
193 194 
193 195 
193 198 
193 208 
193 212 
193 223 
194 195 
194 200 
194 209 
194 221 
194 224 
195 204 
195 210 
195 218 
195 225 
196 197 
196 198 
196 199 
196 200 
196 201 
196 202 
196 203 
196 204 
196 205 
196 206 
196 207 
196 208 
196 209 
196 210 
196 211 
196 214 
197 198 
197 199 
197 200 
197 201 
197 202 
197 203 
197 204 
197 205 
197 206 
197 207 
197 208 
197 209 
197 210 
197 211 
197 212 
198 199 
198 200 
198 201 
198 202 
198 203 
198 204 
198 205 
198 206 
198 207 
198 208 
198 209 
198 210 
198 212 
198 213 
199 200 
199 201 
199 202 
199 203 
199 204 
199 205 
199 206 
199 207 
199 208 
199 209 
199 210 
199 214 
199 217 
200 201 
200 202 
200 203 
200 204 
200 205 
200 206 
200 207 
200 208 
200 209 
200 210 
200 215 
200 221 
201 202 
201 203 
201 204 
201 205 
201 206 
201 207 
201 208 
201 209 
201 210 
201 215 
201 216 
202 203 
202 204 
202 205 
202 206 
202 207 
202 208 
202 209 
202 210 
202 217 
202 220 
203 204 
203 205 
203 206 
203 207 
203 208 
203 209 
203 210 
203 213 
203 218 
204 205 
204 206 
204 207 
204 208 
204 209 
204 210 
204 218 
204 219 
205 206 
205 207 
205 208 
205 209 
205 210 
205 219 
205 220 
206 207 
206 208 
206 209 
206 210 
206 221 
206 224 
207 208 
207 209 
207 210 
207 222 
207 225 
208 209 
208 210 
208 222 
208 223 
209 210 
209 223 
209 224 
210 216 
210 225 
211 212 
211 213 
211 214 
211 215 
211 216 
211 217 
211 218 
211 219 
211 220 
211 221 
211 222 
211 223 
211 224 
211 225 
212 213 
212 214 
212 215 
212 216 
212 217 
212 218 
212 219 
212 220 
212 221 
212 222 
212 223 
212 224 
212 225 
213 214 
213 215 
213 216 
213 217 
213 218 
213 219 
213 220 
213 221 
213 222 
213 223 
213 224 
213 225 
214 215 
214 216 
214 217 
214 218 
214 219 
214 220 
214 221 
214 222 
214 223 
214 224 
214 225 
215 216 
215 217 
215 218 
215 219 
215 220 
215 221 
215 222 
215 223 
215 224 
215 225 
216 217 
216 218 
216 219 
216 220 
216 221 
216 222 
216 223 
216 224 
216 225 
217 218 
217 219 
217 220 
217 221 
217 222 
217 223 
217 224 
217 225 
218 219 
218 220 
218 221 
218 222 
218 223 
218 224 
218 225 
219 220 
219 221 
219 222 
219 223 
219 224 
219 225 
220 221 
220 222 
220 223 
220 224 
220 225 
221 222 
221 223 
221 224 
221 225 
222 223 
222 224 
222 225 
223 224 
223 225 
224 225 
